TCS_Benchmarks/redos_fix/snort3_output_distinct_3270_3269_9_0.txt
([^}]*)([^;]*)
([^}]*)([tT][hH][iI][sS][^;]+[rR][eE][mM][oO][vV][eE][nN][oO][dD][eE])([^;]*)